c CNF formula generated by generate_input.py
c Number of variables: 50
c Number of clauses: 50
c Clause length: random between 1 and 4
p cnf 50 50
-32 2 0
37 0
-45 14 29 0
19 28 10 50 0
-31 -48 9 21 0
-35 34 36 0
-1 -6 -9 0
8 0
-9 16 -47 0
-33 0
35 30 -25 0
29 -6 -35 36 0
-30 -3 0
34 0
30 -32 0
-31 2 24 0
-31 35 23 0
41 -24 -17 0
-25 -39 -6 0
-30 0
-11 -10 -50 -44 0
17 -14 5 29 0
-19 0
-1 16 0
6 20 0
34 33 -43 0
35 18 21 0
-18 -25 0
27 12 0
-25 0
49 0
2 6 23 0
48 -25 -50 0
-12 -15 1 14 0
12 33 20 13 0
-42 0
-22 -1 8 0
24 -19 13 0
-9 -33 25 0
36 -3 -37 -9 0
-40 -4 17 -33 0
-33 -26 0
18 14 0
-4 42 0
-38 42 45 0
47 21 49 0
-15 0
48 -36 0
-45 -19 0
36 -2 -13 48 0
